************************************************************************
file with basedata            : md334_.bas
initial value random generator: 2038603173
************************************************************************
projects                      :  1
jobs (incl. supersource/sink ):  22
horizon                       :  151
RESOURCES
  - renewable                 :  2   R
  - nonrenewable              :  2   N
  - doubly constrained        :  0   D
************************************************************************
PROJECT INFORMATION:
pronr.  #jobs rel.date duedate tardcost  MPM-Time
    1     20      0       23        7       23
************************************************************************
PRECEDENCE RELATIONS:
jobnr.    #modes  #successors   successors
   1        1          3           2   3   4
   2        3          3           6   7  10
   3        3          3           5  11  21
   4        3          3           9  18  20
   5        3          2           9  20
   6        3          3          13  14  15
   7        3          3           8   9  16
   8        3          1          11
   9        3          2          12  17
  10        3          3          11  13  14
  11        3          1          15
  12        3          1          15
  13        3          1          21
  14        3          2          16  17
  15        3          1          19
  16        3          3          18  19  20
  17        3          1          19
  18        3          1          21
  19        3          1          22
  20        3          1          22
  21        3          1          22
  22        1          0        
************************************************************************
REQUESTS/DURATIONS:
jobnr. mode duration  R 1  R 2  N 1  N 2
------------------------------------------------------------------------
  1      1     0       0    0    0    0
  2      1     4       7    5    9    0
         2     5       5    2    7    0
         3     9       2    2    0    9
  3      1     3       8    5    0    5
         2     3       9    5    0    4
         3     3       7    6    8    0
  4      1     9       3    6   10    0
         2     9       2    6    0    6
         3    10       2    6    0    4
  5      1     3       8    2    5    0
         2     5       7    2    0   10
         3     6       7    2    5    0
  6      1     5       7    9    5    0
         2     9       3    5    5    0
         3    10       2    2    4    0
  7      1     5       7    6    0    8
         2     8       6    6    0    7
         3     9       5    5    0    4
  8      1     2       7    3   10    0
         2     3       7    2   10    0
         3     7       6    1   10    0
  9      1     8       8    5    6    0
         2     9       2    4    2    0
         3     9       3    4    0    8
 10      1     1       6    8    7    0
         2     2       4    7    5    0
         3     4       2    4    3    0
 11      1     6       9    5    7    0
         2     7       9    3    0    4
         3     8       8    1    0    2
 12      1     3       6    2    0    6
         2     5       5    2    6    0
         3     6       4    1    0    5
 13      1    10       4    9    0    4
         2    10       9    9    5    0
         3    10       6    7    0    6
 14      1     1       9    7    3    0
         2     1       8    9    4    0
         3     8       8    7    0    2
 15      1     1       9    6    8    0
         2     4       5    5    7    0
         3     6       4    5    7    0
 16      1     2       6    9    0    2
         2     2       6    9    5    0
         3     4       5    9    4    0
 17      1     3       9    6    0    6
         2     4       8    4    6    0
         3     8       5    3    4    0
 18      1     3       8    9    0   10
         2     8       7    5    0    9
         3     9       6    3    0    9
 19      1     2       7    9    0    8
         2     5       4    8    0    5
         3     7       3    8    6    0
 20      1     5       8    3    7    0
         2     9       6    3    7    0
         3    10       6    3    4    0
 21      1     3      10   10    6    0
         2     5       9    9    3    0
         3     8       9    9    0    9
 22      1     0       0    0    0    0
************************************************************************
RESOURCEAVAILABILITIES:
  R 1  R 2  N 1  N 2
   26   20   74   56
************************************************************************
MAXIMAL LAGS:
from  to  type  delay
    1   22   ES      0
    1    2   ES      0
    2   22   ES      0
    1    3   ES      0
    3   22   ES      0
    1    4   ES      0
    4   22   ES      0
    1    5   ES      0
    5   22   ES      0
    1    6   ES      0
    6   22   ES      0
    1    7   ES      0
    7   22   ES      0
    1    8   ES      0
    8   22   ES      0
    1    9   ES      0
    9   22   ES      0
    1   10   ES      0
   10   22   ES      0
    1   11   ES      0
   11   22   ES      0
    1   12   ES      0
   12   22   ES      0
    1   13   ES      0
   13   22   ES      0
    1   14   ES      0
   14   22   ES      0
    1   15   ES      0
   15   22   ES      0
    1   16   ES      0
   16   22   ES      0
    1   17   ES      0
   17   22   ES      0
    1   18   ES      0
   18   22   ES      0
    1   19   ES      0
   19   22   ES      0
    1   20   ES      0
   20   22   ES      0
    1   21   ES      0
   21   22   ES      0
    1   22   ES      0
    2    6   SS     -7
    2    6   SE      9
    2    6   ES      6
    2    6   EE    -11
    2    7   SS     12
    2    7   SE      5
    2    7   ES      2
    2    7   EE      8
    2   10   SS      5
    2   10   SE    -10
    2   10   ES     -3
    2   10   EE      9
    3    5   SS    -10
    3    5   SE     -4
    3    5   ES     -9
    3    5   EE     -6
    3   11   SS     11
    3   11   SE      6
    3   11   ES      3
    3   11   EE     -2
    3   21   SS     -1
    3   21   SE     -8
    3   21   ES      9
    3   21   EE      8
    4    9   SS     -5
    4    9   SE     -9
    4    9   ES     -3
    4    9   EE      7
    4   18   SS    -10
    4   18   SE     -6
    4   18   ES     -2
    4   18   EE      3
    4   20   SS      2
    4   20   SE     -2
    4   20   ES      7
    4   20   EE      9
    5    9   SS     -3
    5    9   SE     10
    5    9   ES      6
    5    9   EE     -8
    5   20   SS      6
    5   20   SE      6
    5   20   ES     -1
    5   20   EE     -2
    6   13   SS      1
    6   13   SE     -7
    6   13   ES    -12
    6   13   EE     -2
    6   14   SS     -5
    6   14   SE     -5
    6   14   ES     10
    6   14   EE     11
    6   15   SS      8
    6   15   SE      1
    6   15   ES     -4
    6   15   EE     -1
    7    8   SS     -8
    7    8   SE      9
    7    8   ES     11
    7    8   EE     -2
    7    9   SS      3
    7    9   SE      2
    7    9   ES      2
    7    9   EE     -1
    7   16   SS     12
    7   16   SE     -3
    7   16   ES      3
    7   16   EE      5
    8   11   SS     -9
    8   11   SE     -7
    8   11   ES      8
    8   11   EE      7
    9   12   SS    -10
    9   12   SE     -4
    9   12   ES     -8
    9   12   EE      5
    9   17   SS     -6
    9   17   SE     -4
    9   17   ES     11
    9   17   EE      8
   10   11   SS    -10
   10   11   SE     11
   10   11   ES    -10
   10   11   EE    -12
   10   13   SS      4
   10   13   SE      8
   10   13   ES    -12
   10   13   EE      6
   10   14   SS      6
   10   14   SE      0
   10   14   ES     12
   10   14   EE      6
   11   15   SS     -6
   11   15   SE    -11
   11   15   ES      5
   11   15   EE     -4
   12   15   SS      5
   12   15   SE      5
   12   15   ES      3
   12   15   EE      8
   13   21   SS     12
   13   21   SE     -8
   13   21   ES     -1
   13   21   EE      0
   14   16   SS     -5
   14   16   SE     12
   14   16   ES      6
   14   16   EE     11
   14   17   SS     -3
   14   17   SE     -8
   14   17   ES      2
   14   17   EE      4
   15   19   SS      4
   15   19   SE    -10
   19   15   SE      0
   15   19   ES      0
   15   19   EE     -1
   16   18   SS      4
   16   18   SE    -12
   16   18   ES      9
   16   18   EE     -5
   16   19   SS      7
   16   19   SE      9
   16   19   ES     -7
   16   19   EE     12
   16   20   SS      4
   16   20   SE     -8
   16   20   ES      2
   16   20   EE     -7
   17   19   SS     -7
   17   19   SE      6
   17   19   ES      6
   17   19   EE      9
   18   21   SS     -8
   18   21   SE     11
   18   21   ES     11
   18   21   EE      3
************************************************************************
